33
120
96	1
93	2
91	1
90	2
87	2
85	1
83	2
82	1
77	1
74	1
73	2
72	2
70	2
69	1
66	2
64	2
62	1
61	1
59	1
54	2
51	2
48	1
45	1
43	3
40	3
37	2
36	1
35	1
34	1
32	1
31	1
30	2
28	1
